Instance Name : rc108
Date : 2022-07-19
Solution
Route 1 : 33 32 30 28 26 27 29 31 34 93
Route 2 : 69 98 53 82 90
Route 3 : 61 81 94 71 72 54 96
Route 4 : 64 51 76 89 18 48 19 20 66
Route 5 : 88 6 7 79 73 78 60 55
Route 6 : 65 99 52 86 87 59 97 75 58 74
Route 7 : 100 2 8 46 4 45 5 3 1 70 68
Route 8 : 83 57 24 22 49 21 23 25 77
Route 9 : 92 95 67 62 50 63 85 84 56 91 80
Route 10 : 12 14 47 17 16 15 13 9 11 10
Route 11 : 41 42 44 43 40 38 37 35 36 39
